InboundTrucks  = 10;
OutboundTrucks = 10;
InboundDoors   = 8;
OutboundDoors  = 8;
ReleaseTime    = [30,75,69,16,47,117,77,60,80,74];
UnloadTime     = [25,27,21,17,33,24,24,27,24,22];
LoadTime       = [5,15,7,20,19,7,14,15,6,12];
TransferTime   = [| 6,4,5,0,0,2,4,8,6,5 | 0,2,5,4,0,8,6,2,4,2 | 3,0,5,6,7,4,8,8,8,7 | 8,2,5,7,5,0,2,0,5,3 | 6,0,0,0,3,7,3,0,3,0 | 5,4,3,6,7,0,0,4,0,7 | 4,6,2,8,6,0,6,6,0,4 | 5,7,5,0,8,7,6,6,4,3 | 3,0,0,6,4,6,4,7,3,5 | 8,4,7,3,3,6,0,4,6,7 |];
